
Gurobi 6.0.4 (win64) logging started 06/20/15 12:50:43

Read LP format model from file C:\MT\repository\VRPTWMS\instances\mip\fuel\N12-C_DV100-C_SV30_F6_2_No_1.lp
Reading time = 0.02 seconds
(null): 865 rows, 392 columns, 3639 nonzeros
Optimize a model with 865 rows, 392 columns and 3639 nonzeros
Model has 1728 quadratic constraints
Coefficient statistics:
  Matrix range    [1e+00, 1e+06]
  Objective range [1e+04, 1e+07]
  Bounds range    [1e+00, 1e+06]
  RHS range       [1e+00, 1e+06]
Presolve removed 102 rows and 46 columns
Presolve time: 0.67s
Presolved: 3407 rows, 1668 columns, 19282 nonzeros
Variable types: 1322 continuous, 346 integer (296 binary)
Found heuristic solution: objective 1.246366e+08

Root relaxation: objective 2.258193e+06, 202 iterations, 0.01 seconds

    Nodes    |    Current Node    |     Objective Bounds      |     Work
 Expl Unexpl |  Obj  Depth IntInf | Incumbent    BestBd   Gap | It/Node Time

     0     0 2258193.43    0   43 1.2464e+08 2258193.43  98.2%     -    0s
H    0     0                    9.345280e+07 2258193.43  97.6%     -    0s
     0     0 1.2107e+07    0   46 9.3453e+07 1.2107e+07  87.0%     -    0s
H    0     0                    8.344040e+07 1.2107e+07  85.5%     -    0s
     0     0 1.4611e+07    0   38 8.3440e+07 1.4611e+07  82.5%     -    0s
H    0     0                    7.328900e+07 1.4611e+07  80.1%     -    0s
     0     0 1.4638e+07    0   48 7.3289e+07 1.4638e+07  80.0%     -    0s
     0     0 1.4650e+07    0   34 7.3289e+07 1.4650e+07  80.0%     -    0s
     0     0 1.4650e+07    0   34 7.3289e+07 1.4650e+07  80.0%     -    0s
     0     2 1.4650e+07    0   33 7.3289e+07 1.4650e+07  80.0%     -    0s
H   30    31                    4.241570e+07 2.2063e+07  48.0%  17.3    1s
*  285   178              28    4.237460e+07 2.2234e+07  47.5%  16.4    1s
*  296   168              25    3.223370e+07 2.2234e+07  31.0%  16.3    1s
H  386   202                    3.211930e+07 2.2253e+07  30.7%  15.3    1s
H  427   218                    3.206990e+07 2.2255e+07  30.6%  16.1    1s
  1477   561 2.2354e+07   16   55 3.2070e+07 2.2354e+07  30.3%  16.2    5s

Cutting planes:
  Learned: 2
  Gomory: 12
  Cover: 34
  Implied bound: 37
  Clique: 7
  MIR: 8
  Flow cover: 55
  GUB cover: 5
  Zero half: 10

Explored 2350 nodes (66321 simplex iterations) in 9.62 seconds
Thread count was 2 (of 4 available processors)

Optimal solution found (tolerance 1.00e-04)
Best objective 3.206990000000e+07, best bound 3.206990000000e+07, gap 0.0%
k_c1	30000.0
k_c10	160000.0
k_c11	130000.0
k_c12	140000.0
k_c2	940000.0
k_c3	1000000.0
k_c4	90000.0
k_c5	20000.0
k_c6	40000.0
k_c7	1000000.0
k_c8	80000.0
k_c9	50000.0
k_dN	-0.0
o_1	-0.0
o_10	0.0
o_11	0.0
o_12	0.0
o_2	-0.0
o_3	0.0
o_4	0.0
o_5	0.0
o_6	0.0
o_7	-0.0
o_8	0.0
o_9	0.0
p_1	0.0
p_10	0.0
p_11	0.0
p_12	0.0
p_2	0.0
p_3	0.0
p_4	0.0
p_5	0.0
p_6	-0.0
p_7	0.0
p_8	0.0
p_9	0.0
phi_c1	2676.0
phi_c10	49784.0
phi_c11	23682.0
phi_c12	41415.0
phi_c2	38853.0
phi_c3	57585.0
phi_c4	10155.0
phi_c5	19448.0
phi_c6	13447.0
phi_c7	39522.0
phi_c8	18177.0
phi_c9	26840.0
phi_d0	60000.0
phi_dN	-0.0
tauD_c1	700000.0
tauD_c10	400000.0
tauD_c11	461351.0
tauD_c12	69450.0
tauD_c2	384275.0
tauD_c3	100000.0
tauD_c4	600000.0
tauD_c5	800000.0
tauD_c6	274750.0
tauD_c7	76525.0
tauD_c8	187075.0
tauD_c9	500000.0
tauD_d0	-0.0
tauD_dN	1000000.0
tauS_c1	910000.0
tauS_c10	899850.0
tauS_c11	880950.0
tauS_c12	850550.0
tauS_c2	845000.0
tauS_c3	910975.0
tauS_c4	886375.0
tauS_c5	847325.0
tauS_c6	869750.0
tauS_c7	843475.0
tauS_c8	857050.0
tauS_c9	859125.0
tauS_d0	-0.0
tauS_dN	1000000.0
x_c10_c11	1.0
x_c11_c4	1.0
x_c12_c8	1.0
x_c1_dN	1.0
x_c2_c9	1.0
x_c3_c10	1.0
x_c4_c1	1.0
x_c5_dN	1.0
x_c6_dN	1.0
x_c7_c2	1.0
x_c8_c6	1.0
x_c9_c5	1.0
x_d0_c12	1.0
x_d0_c3	1.0
x_d0_c7	1.0
